\ Model knapsack_80_1_4
\ LP format - for model browsing. Use MPS format to capture full model detail.
\ Signature: 0x7917661cc49db236
Minimize
  - 869 y[0] - 126 y[1] - 510 y[2] - 698 y[3] - 656 y[4] - 1056 y[5]
   - 213 y[6] - 200 y[7] - 770 y[8] - 785 y[9] - 779 y[10] - 837 y[11]
   - 307 y[12] - 321 y[13] - 1029 y[14] - 543 y[15] - 259 y[16] - 878 y[17]
   - 708 y[18] - 158 y[19] - 497 y[20] - 1031 y[21] - 109 y[22] - 375 y[23]
   - 298 y[24] - 731 y[25] - 758 y[26] - 902 y[27] - 746 y[28] - 279 y[29]
   - 590 y[30] - 640 y[31] - 347 y[32] - 566 y[33] - 562 y[34] - 862 y[35]
   - 519 y[36] - 810 y[37] - 904 y[38] - 685 y[39] - 1035 y[40] - 641 y[41]
   - 1017 y[42] - 667 y[43] - 1098 y[44] - 1020 y[45] - 808 y[46]
   - 1100 y[47] - 514 y[48] - 561 y[49] - 610 y[50] - 274 y[51] - 672 y[52]
   - 752 y[53] - 305 y[54] - 1011 y[55] - 123 y[56] - 506 y[57] - 337 y[58]
   - 852 y[59] - 991 y[60] - 469 y[61] - 149 y[62] - 484 y[63] - 497 y[64]
   - 876 y[65] - 903 y[66] - 875 y[67] - 218 y[68] - 443 y[69] - 219 y[70]
   - 433 y[71] - 546 y[72] - 273 y[73] - 654 y[74] - 595 y[75] - 906 y[76]
   - 878 y[77] - 496 y[78] - 175 y[79]
Subject To
 primal_upper: 769 y[0] + 26 y[1] + 410 y[2] + 598 y[3] + 556 y[4]
   + 956 y[5] + 113 y[6] + 100 y[7] + 670 y[8] + 685 y[9] + 679 y[10]
   + 737 y[11] + 207 y[12] + 221 y[13] + 929 y[14] + 443 y[15] + 159 y[16]
   + 778 y[17] + 608 y[18] + 58 y[19] + 397 y[20] + 931 y[21] + 9 y[22]
   + 275 y[23] + 198 y[24] + 631 y[25] + 658 y[26] + 802 y[27] + 646 y[28]
   + 179 y[29] + 490 y[30] + 540 y[31] + 247 y[32] + 466 y[33] + 462 y[34]
   + 762 y[35] + 419 y[36] + 710 y[37] + 804 y[38] + 585 y[39] + 935 y[40]
   + 541 y[41] + 917 y[42] + 567 y[43] + 998 y[44] + 920 y[45] + 708 y[46]
   + 1000 y[47] + 414 y[48] + 461 y[49] + 510 y[50] + 174 y[51] + 572 y[52]
   + 652 y[53] + 205 y[54] + 911 y[55] + 23 y[56] + 406 y[57] + 237 y[58]
   + 752 y[59] + 891 y[60] + 369 y[61] + 49 y[62] + 384 y[63] + 397 y[64]
   + 776 y[65] + 803 y[66] + 775 y[67] + 118 y[68] + 343 y[69] + 119 y[70]
   + 333 y[71] + 446 y[72] + 173 y[73] + 554 y[74] + 495 y[75] + 806 y[76]
   + 778 y[77] + 396 y[78] + 75 y[79] + 77 z[0] + 3 z[1] + 41 z[2]
   + 60 z[3] + 56 z[4] + 96 z[5] + 11 z[6] + 10 z[7] + 67 z[8] + 68 z[9]
   + 68 z[10] + 74 z[11] + 21 z[12] + 22 z[13] + 93 z[14] + 44 z[15]
   + 16 z[16] + 78 z[17] + 61 z[18] + 6 z[19] + 40 z[20] + 93 z[21] + z[22]
   + 28 z[23] + 20 z[24] + 63 z[25] + 66 z[26] + 80 z[27] + 65 z[28]
   + 18 z[29] + 49 z[30] + 54 z[31] + 25 z[32] + 47 z[33] + 46 z[34]
   + 76 z[35] + 42 z[36] + 71 z[37] + 80 z[38] + 58 z[39] + 94 z[40]
   + 54 z[41] + 92 z[42] + 57 z[43] + 100 z[44] + 92 z[45] + 71 z[46]
   + 100 z[47] + 41 z[48] + 46 z[49] + 51 z[50] + 17 z[51] + 57 z[52]
   + 65 z[53] + 20 z[54] + 91 z[55] + 2 z[56] + 41 z[57] + 24 z[58]
   + 75 z[59] + 89 z[60] + 37 z[61] + 5 z[62] + 38 z[63] + 40 z[64]
   + 78 z[65] + 80 z[66] + 78 z[67] + 12 z[68] + 34 z[69] + 12 z[70]
   + 33 z[71] + 45 z[72] + 17 z[73] + 55 z[74] + 50 z[75] + 81 z[76]
   + 78 z[77] + 40 z[78] + 8 z[79] <= 8179
 primal_lower0: - y[0] - y[1] - y[2] - y[3] - 9 y[4] - 4 y[5] - 7 y[6]
   - 5 y[8] - 6 y[9] - 9 y[10] - 10 y[11] - 4 y[12] - 11 y[13] - y[15]
   - 5 y[16] - 6 y[17] - 6 y[18] - 9 y[19] - 8 y[20] - 4 y[21] - 9 y[22]
   - 11 y[23] - 8 y[24] - 9 y[25] - 7 y[26] - y[27] - 10 y[28] - 11 y[29]
   - 7 y[30] - 9 y[31] - 6 y[32] - 2 y[33] - 11 y[34] - 4 y[35] - y[36]
   - 9 y[38] - 2 y[39] - 3 y[40] - 2 y[41] - 3 y[42] - 9 y[43] - y[45]
   - 5 y[46] - 6 y[47] - y[48] - 6 y[49] - 8 y[50] - 3 y[51] - 2 y[52]
   - 7 y[53] - 7 y[54] - 6 y[55] - 5 y[56] - 5 y[57] - y[58] - y[59]
   - 7 y[60] - 5 y[61] - 7 y[63] - 11 y[64] - 2 y[65] - 2 y[66] - 5 y[67]
   - 11 y[68] - 6 y[69] - 8 y[70] - 2 y[71] - 11 y[72] - 10 y[73] - 4 y[74]
   - 8 y[75] - y[76] - 3 y[77] - 6 y[78] - 7 y[79] + 706 u[0] + 487 u[1]
   + 371 u[2] + 387 u[3] + 733 u[4] + 673 u[5] + 442 u[6] + 345 u[7]
   + 351 u[8] + 562 u[9] + 936 u[10] + 606 u[11] + 312 u[12] + 378 u[13]
   + 602 u[14] + 928 u[15] + 544 u[16] + 623 u[17] + 881 u[18] + 407 u[19]
   + 454 u[20] + 64 u[21] + 930 u[22] + 264 u[23] + 983 u[24] + 852 u[25]
   + 67 u[26] + 175 u[27] + 855 u[28] + 24 u[29] + 955 u[30] + 785 u[31]
   + 968 u[32] + 791 u[33] + 431 u[34] + 527 u[35] + 564 u[36] + 667 u[37]
   + 277 u[38] + 262 u[39] + 864 u[40] + 762 u[41] + 902 u[42] + 28 u[43]
   + 823 u[44] + 949 u[45] + 565 u[46] + 621 u[47] + 767 u[48] + 2 u[49]
   + 855 u[50] + 219 u[51] + 325 u[52] + 897 u[53] + 782 u[54] + 660 u[55]
   + 664 u[56] + 963 u[57] + 526 u[58] + 69 u[59] + 76 u[60] + 446 u[61]
   + 618 u[62] + 221 u[63] + 494 u[64] + 557 u[65] + 220 u[66] + 932 u[67]
   + 775 u[68] + 364 u[69] + 864 u[70] + 186 u[71] + 727 u[72] + 82 u[73]
   + 739 u[74] + 156 u[75] + 503 u[76] + 671 u[77] + 37 u[78] + 272 u[79]
   <= 983
 mccormick1[0]: - u[0] + z[0] <= 0
 mccormick1[1]: - u[1] + z[1] <= 0
 mccormick1[2]: - u[2] + z[2] <= 0
 mccormick1[3]: - u[3] + z[3] <= 0
 mccormick1[4]: - u[4] + z[4] <= 0
 mccormick1[5]: - u[5] + z[5] <= 0
 mccormick1[6]: - u[6] + z[6] <= 0
 mccormick1[7]: - u[7] + z[7] <= 0
 mccormick1[8]: - u[8] + z[8] <= 0
 mccormick1[9]: - u[9] + z[9] <= 0
 mccormick1[10]: - u[10] + z[10] <= 0
 mccormick1[11]: - u[11] + z[11] <= 0
 mccormick1[12]: - u[12] + z[12] <= 0
 mccormick1[13]: - u[13] + z[13] <= 0
 mccormick1[14]: - u[14] + z[14] <= 0
 mccormick1[15]: - u[15] + z[15] <= 0
 mccormick1[16]: - u[16] + z[16] <= 0
 mccormick1[17]: - u[17] + z[17] <= 0
 mccormick1[18]: - u[18] + z[18] <= 0
 mccormick1[19]: - u[19] + z[19] <= 0
 mccormick1[20]: - u[20] + z[20] <= 0
 mccormick1[21]: - u[21] + z[21] <= 0
 mccormick1[22]: - u[22] + z[22] <= 0
 mccormick1[23]: - u[23] + z[23] <= 0
 mccormick1[24]: - u[24] + z[24] <= 0
 mccormick1[25]: - u[25] + z[25] <= 0
 mccormick1[26]: - u[26] + z[26] <= 0
 mccormick1[27]: - u[27] + z[27] <= 0
 mccormick1[28]: - u[28] + z[28] <= 0
 mccormick1[29]: - u[29] + z[29] <= 0
 mccormick1[30]: - u[30] + z[30] <= 0
 mccormick1[31]: - u[31] + z[31] <= 0
 mccormick1[32]: - u[32] + z[32] <= 0
 mccormick1[33]: - u[33] + z[33] <= 0
 mccormick1[34]: - u[34] + z[34] <= 0
 mccormick1[35]: - u[35] + z[35] <= 0
 mccormick1[36]: - u[36] + z[36] <= 0
 mccormick1[37]: - u[37] + z[37] <= 0
 mccormick1[38]: - u[38] + z[38] <= 0
 mccormick1[39]: - u[39] + z[39] <= 0
 mccormick1[40]: - u[40] + z[40] <= 0
 mccormick1[41]: - u[41] + z[41] <= 0
 mccormick1[42]: - u[42] + z[42] <= 0
 mccormick1[43]: - u[43] + z[43] <= 0
 mccormick1[44]: - u[44] + z[44] <= 0
 mccormick1[45]: - u[45] + z[45] <= 0
 mccormick1[46]: - u[46] + z[46] <= 0
 mccormick1[47]: - u[47] + z[47] <= 0
 mccormick1[48]: - u[48] + z[48] <= 0
 mccormick1[49]: - u[49] + z[49] <= 0
 mccormick1[50]: - u[50] + z[50] <= 0
 mccormick1[51]: - u[51] + z[51] <= 0
 mccormick1[52]: - u[52] + z[52] <= 0
 mccormick1[53]: - u[53] + z[53] <= 0
 mccormick1[54]: - u[54] + z[54] <= 0
 mccormick1[55]: - u[55] + z[55] <= 0
 mccormick1[56]: - u[56] + z[56] <= 0
 mccormick1[57]: - u[57] + z[57] <= 0
 mccormick1[58]: - u[58] + z[58] <= 0
 mccormick1[59]: - u[59] + z[59] <= 0
 mccormick1[60]: - u[60] + z[60] <= 0
 mccormick1[61]: - u[61] + z[61] <= 0
 mccormick1[62]: - u[62] + z[62] <= 0
 mccormick1[63]: - u[63] + z[63] <= 0
 mccormick1[64]: - u[64] + z[64] <= 0
 mccormick1[65]: - u[65] + z[65] <= 0
 mccormick1[66]: - u[66] + z[66] <= 0
 mccormick1[67]: - u[67] + z[67] <= 0
 mccormick1[68]: - u[68] + z[68] <= 0
 mccormick1[69]: - u[69] + z[69] <= 0
 mccormick1[70]: - u[70] + z[70] <= 0
 mccormick1[71]: - u[71] + z[71] <= 0
 mccormick1[72]: - u[72] + z[72] <= 0
 mccormick1[73]: - u[73] + z[73] <= 0
 mccormick1[74]: - u[74] + z[74] <= 0
 mccormick1[75]: - u[75] + z[75] <= 0
 mccormick1[76]: - u[76] + z[76] <= 0
 mccormick1[77]: - u[77] + z[77] <= 0
 mccormick1[78]: - u[78] + z[78] <= 0
 mccormick1[79]: - u[79] + z[79] <= 0
 mccormick2[0]: - y[0] + z[0] <= 0
 mccormick2[1]: - y[1] + z[1] <= 0
 mccormick2[2]: - y[2] + z[2] <= 0
 mccormick2[3]: - y[3] + z[3] <= 0
 mccormick2[4]: - y[4] + z[4] <= 0
 mccormick2[5]: - y[5] + z[5] <= 0
 mccormick2[6]: - y[6] + z[6] <= 0
 mccormick2[7]: - y[7] + z[7] <= 0
 mccormick2[8]: - y[8] + z[8] <= 0
 mccormick2[9]: - y[9] + z[9] <= 0
 mccormick2[10]: - y[10] + z[10] <= 0
 mccormick2[11]: - y[11] + z[11] <= 0
 mccormick2[12]: - y[12] + z[12] <= 0
 mccormick2[13]: - y[13] + z[13] <= 0
 mccormick2[14]: - y[14] + z[14] <= 0
 mccormick2[15]: - y[15] + z[15] <= 0
 mccormick2[16]: - y[16] + z[16] <= 0
 mccormick2[17]: - y[17] + z[17] <= 0
 mccormick2[18]: - y[18] + z[18] <= 0
 mccormick2[19]: - y[19] + z[19] <= 0
 mccormick2[20]: - y[20] + z[20] <= 0
 mccormick2[21]: - y[21] + z[21] <= 0
 mccormick2[22]: - y[22] + z[22] <= 0
 mccormick2[23]: - y[23] + z[23] <= 0
 mccormick2[24]: - y[24] + z[24] <= 0
 mccormick2[25]: - y[25] + z[25] <= 0
 mccormick2[26]: - y[26] + z[26] <= 0
 mccormick2[27]: - y[27] + z[27] <= 0
 mccormick2[28]: - y[28] + z[28] <= 0
 mccormick2[29]: - y[29] + z[29] <= 0
 mccormick2[30]: - y[30] + z[30] <= 0
 mccormick2[31]: - y[31] + z[31] <= 0
 mccormick2[32]: - y[32] + z[32] <= 0
 mccormick2[33]: - y[33] + z[33] <= 0
 mccormick2[34]: - y[34] + z[34] <= 0
 mccormick2[35]: - y[35] + z[35] <= 0
 mccormick2[36]: - y[36] + z[36] <= 0
 mccormick2[37]: - y[37] + z[37] <= 0
 mccormick2[38]: - y[38] + z[38] <= 0
 mccormick2[39]: - y[39] + z[39] <= 0
 mccormick2[40]: - y[40] + z[40] <= 0
 mccormick2[41]: - y[41] + z[41] <= 0
 mccormick2[42]: - y[42] + z[42] <= 0
 mccormick2[43]: - y[43] + z[43] <= 0
 mccormick2[44]: - y[44] + z[44] <= 0
 mccormick2[45]: - y[45] + z[45] <= 0
 mccormick2[46]: - y[46] + z[46] <= 0
 mccormick2[47]: - y[47] + z[47] <= 0
 mccormick2[48]: - y[48] + z[48] <= 0
 mccormick2[49]: - y[49] + z[49] <= 0
 mccormick2[50]: - y[50] + z[50] <= 0
 mccormick2[51]: - y[51] + z[51] <= 0
 mccormick2[52]: - y[52] + z[52] <= 0
 mccormick2[53]: - y[53] + z[53] <= 0
 mccormick2[54]: - y[54] + z[54] <= 0
 mccormick2[55]: - y[55] + z[55] <= 0
 mccormick2[56]: - y[56] + z[56] <= 0
 mccormick2[57]: - y[57] + z[57] <= 0
 mccormick2[58]: - y[58] + z[58] <= 0
 mccormick2[59]: - y[59] + z[59] <= 0
 mccormick2[60]: - y[60] + z[60] <= 0
 mccormick2[61]: - y[61] + z[61] <= 0
 mccormick2[62]: - y[62] + z[62] <= 0
 mccormick2[63]: - y[63] + z[63] <= 0
 mccormick2[64]: - y[64] + z[64] <= 0
 mccormick2[65]: - y[65] + z[65] <= 0
 mccormick2[66]: - y[66] + z[66] <= 0
 mccormick2[67]: - y[67] + z[67] <= 0
 mccormick2[68]: - y[68] + z[68] <= 0
 mccormick2[69]: - y[69] + z[69] <= 0
 mccormick2[70]: - y[70] + z[70] <= 0
 mccormick2[71]: - y[71] + z[71] <= 0
 mccormick2[72]: - y[72] + z[72] <= 0
 mccormick2[73]: - y[73] + z[73] <= 0
 mccormick2[74]: - y[74] + z[74] <= 0
 mccormick2[75]: - y[75] + z[75] <= 0
 mccormick2[76]: - y[76] + z[76] <= 0
 mccormick2[77]: - y[77] + z[77] <= 0
 mccormick2[78]: - y[78] + z[78] <= 0
 mccormick2[79]: - y[79] + z[79] <= 0
 mccormick3[0]: y[0] + u[0] - z[0] <= 1
 mccormick3[1]: y[1] + u[1] - z[1] <= 1
 mccormick3[2]: y[2] + u[2] - z[2] <= 1
 mccormick3[3]: y[3] + u[3] - z[3] <= 1
 mccormick3[4]: y[4] + u[4] - z[4] <= 1
 mccormick3[5]: y[5] + u[5] - z[5] <= 1
 mccormick3[6]: y[6] + u[6] - z[6] <= 1
 mccormick3[7]: y[7] + u[7] - z[7] <= 1
 mccormick3[8]: y[8] + u[8] - z[8] <= 1
 mccormick3[9]: y[9] + u[9] - z[9] <= 1
 mccormick3[10]: y[10] + u[10] - z[10] <= 1
 mccormick3[11]: y[11] + u[11] - z[11] <= 1
 mccormick3[12]: y[12] + u[12] - z[12] <= 1
 mccormick3[13]: y[13] + u[13] - z[13] <= 1
 mccormick3[14]: y[14] + u[14] - z[14] <= 1
 mccormick3[15]: y[15] + u[15] - z[15] <= 1
 mccormick3[16]: y[16] + u[16] - z[16] <= 1
 mccormick3[17]: y[17] + u[17] - z[17] <= 1
 mccormick3[18]: y[18] + u[18] - z[18] <= 1
 mccormick3[19]: y[19] + u[19] - z[19] <= 1
 mccormick3[20]: y[20] + u[20] - z[20] <= 1
 mccormick3[21]: y[21] + u[21] - z[21] <= 1
 mccormick3[22]: y[22] + u[22] - z[22] <= 1
 mccormick3[23]: y[23] + u[23] - z[23] <= 1
 mccormick3[24]: y[24] + u[24] - z[24] <= 1
 mccormick3[25]: y[25] + u[25] - z[25] <= 1
 mccormick3[26]: y[26] + u[26] - z[26] <= 1
 mccormick3[27]: y[27] + u[27] - z[27] <= 1
 mccormick3[28]: y[28] + u[28] - z[28] <= 1
 mccormick3[29]: y[29] + u[29] - z[29] <= 1
 mccormick3[30]: y[30] + u[30] - z[30] <= 1
 mccormick3[31]: y[31] + u[31] - z[31] <= 1
 mccormick3[32]: y[32] + u[32] - z[32] <= 1
 mccormick3[33]: y[33] + u[33] - z[33] <= 1
 mccormick3[34]: y[34] + u[34] - z[34] <= 1
 mccormick3[35]: y[35] + u[35] - z[35] <= 1
 mccormick3[36]: y[36] + u[36] - z[36] <= 1
 mccormick3[37]: y[37] + u[37] - z[37] <= 1
 mccormick3[38]: y[38] + u[38] - z[38] <= 1
 mccormick3[39]: y[39] + u[39] - z[39] <= 1
 mccormick3[40]: y[40] + u[40] - z[40] <= 1
 mccormick3[41]: y[41] + u[41] - z[41] <= 1
 mccormick3[42]: y[42] + u[42] - z[42] <= 1
 mccormick3[43]: y[43] + u[43] - z[43] <= 1
 mccormick3[44]: y[44] + u[44] - z[44] <= 1
 mccormick3[45]: y[45] + u[45] - z[45] <= 1
 mccormick3[46]: y[46] + u[46] - z[46] <= 1
 mccormick3[47]: y[47] + u[47] - z[47] <= 1
 mccormick3[48]: y[48] + u[48] - z[48] <= 1
 mccormick3[49]: y[49] + u[49] - z[49] <= 1
 mccormick3[50]: y[50] + u[50] - z[50] <= 1
 mccormick3[51]: y[51] + u[51] - z[51] <= 1
 mccormick3[52]: y[52] + u[52] - z[52] <= 1
 mccormick3[53]: y[53] + u[53] - z[53] <= 1
 mccormick3[54]: y[54] + u[54] - z[54] <= 1
 mccormick3[55]: y[55] + u[55] - z[55] <= 1
 mccormick3[56]: y[56] + u[56] - z[56] <= 1
 mccormick3[57]: y[57] + u[57] - z[57] <= 1
 mccormick3[58]: y[58] + u[58] - z[58] <= 1
 mccormick3[59]: y[59] + u[59] - z[59] <= 1
 mccormick3[60]: y[60] + u[60] - z[60] <= 1
 mccormick3[61]: y[61] + u[61] - z[61] <= 1
 mccormick3[62]: y[62] + u[62] - z[62] <= 1
 mccormick3[63]: y[63] + u[63] - z[63] <= 1
 mccormick3[64]: y[64] + u[64] - z[64] <= 1
 mccormick3[65]: y[65] + u[65] - z[65] <= 1
 mccormick3[66]: y[66] + u[66] - z[66] <= 1
 mccormick3[67]: y[67] + u[67] - z[67] <= 1
 mccormick3[68]: y[68] + u[68] - z[68] <= 1
 mccormick3[69]: y[69] + u[69] - z[69] <= 1
 mccormick3[70]: y[70] + u[70] - z[70] <= 1
 mccormick3[71]: y[71] + u[71] - z[71] <= 1
 mccormick3[72]: y[72] + u[72] - z[72] <= 1
 mccormick3[73]: y[73] + u[73] - z[73] <= 1
 mccormick3[74]: y[74] + u[74] - z[74] <= 1
 mccormick3[75]: y[75] + u[75] - z[75] <= 1
 mccormick3[76]: y[76] + u[76] - z[76] <= 1
 mccormick3[77]: y[77] + u[77] - z[77] <= 1
 mccormick3[78]: y[78] + u[78] - z[78] <= 1
 mccormick3[79]: y[79] + u[79] - z[79] <= 1
Bounds
Binaries
 y[0] y[1] y[2] y[3] y[4] y[5] y[6] y[7] y[8] y[9] y[10] y[11] y[12] y[13]
 y[14] y[15] y[16] y[17] y[18] y[19] y[20] y[21] y[22] y[23] y[24] y[25]
 y[26] y[27] y[28] y[29] y[30] y[31] y[32] y[33] y[34] y[35] y[36] y[37]
 y[38] y[39] y[40] y[41] y[42] y[43] y[44] y[45] y[46] y[47] y[48] y[49]
 y[50] y[51] y[52] y[53] y[54] y[55] y[56] y[57] y[58] y[59] y[60] y[61]
 y[62] y[63] y[64] y[65] y[66] y[67] y[68] y[69] y[70] y[71] y[72] y[73]
 y[74] y[75] y[76] y[77] y[78] y[79] u[0] u[1] u[2] u[3] u[4] u[5] u[6]
 u[7] u[8] u[9] u[10] u[11] u[12] u[13] u[14] u[15] u[16] u[17] u[18] u[19]
 u[20] u[21] u[22] u[23] u[24] u[25] u[26] u[27] u[28] u[29] u[30] u[31]
 u[32] u[33] u[34] u[35] u[36] u[37] u[38] u[39] u[40] u[41] u[42] u[43]
 u[44] u[45] u[46] u[47] u[48] u[49] u[50] u[51] u[52] u[53] u[54] u[55]
 u[56] u[57] u[58] u[59] u[60] u[61] u[62] u[63] u[64] u[65] u[66] u[67]
 u[68] u[69] u[70] u[71] u[72] u[73] u[74] u[75] u[76] u[77] u[78] u[79]
 z[0] z[1] z[2] z[3] z[4] z[5] z[6] z[7] z[8] z[9] z[10] z[11] z[12] z[13]
 z[14] z[15] z[16] z[17] z[18] z[19] z[20] z[21] z[22] z[23] z[24] z[25]
 z[26] z[27] z[28] z[29] z[30] z[31] z[32] z[33] z[34] z[35] z[36] z[37]
 z[38] z[39] z[40] z[41] z[42] z[43] z[44] z[45] z[46] z[47] z[48] z[49]
 z[50] z[51] z[52] z[53] z[54] z[55] z[56] z[57] z[58] z[59] z[60] z[61]
 z[62] z[63] z[64] z[65] z[66] z[67] z[68] z[69] z[70] z[71] z[72] z[73]
 z[74] z[75] z[76] z[77] z[78] z[79]
End
